c colouring generated by benchmark framework
p edge 300 21375
v 1 18
v 2 7
v 3 10
v 4 36
v 5 13
v 6 27
v 7 38
v 8 4
v 9 15
v 10 1
v 11 8
v 12 32
v 13 17
v 14 43
v 15 42
v 16 49
v 17 43
v 18 4
v 19 3
v 20 16
v 21 38
v 22 22
v 23 4
v 24 30
v 25 3
v 26 0
v 27 6
v 28 52
v 29 17
v 30 29
v 31 14
v 32 0
v 33 35
v 34 3
v 35 12
v 36 48
v 37 27
v 38 20
v 39 48
v 40 40
v 41 13
v 42 50
v 43 6
v 44 7
v 45 23
v 46 22
v 47 1
v 48 23
v 49 2
v 50 18
v 51 10
v 52 7
v 53 26
v 54 10
v 55 36
v 56 22
v 57 15
v 58 14
v 59 31
v 60 29
v 61 26
v 62 0
v 63 16
v 64 42
v 65 36
v 66 11
v 67 31
v 68 28
v 69 24
v 70 28
v 71 1
v 72 20
v 73 7
v 74 10
v 75 13
v 76 24
v 77 3
v 78 14
v 79 35
v 80 4
v 81 11
v 82 22
v 83 14
v 84 37
v 85 45
v 86 48
v 87 5
v 88 21
v 89 9
v 90 33
v 91 2
v 92 46
v 93 37
v 94 33
v 95 5
v 96 21
v 97 51
v 98 35
v 99 1
v 100 37
v 101 6
v 102 28
v 103 29
v 104 24
v 105 14
v 106 24
v 107 5
v 108 9
v 109 0
v 110 15
v 111 19
v 112 2
v 113 7
v 114 46
v 115 31
v 116 0
v 117 23
v 118 5
v 119 15
v 120 9
v 121 23
v 122 7
v 123 4
v 124 29
v 125 31
v 126 38
v 127 21
v 128 16
v 129 12
v 130 31
v 131 28
v 132 21
v 133 35
v 134 42
v 135 30
v 136 20
v 137 14
v 138 41
v 139 44
v 140 10
v 141 8
v 142 18
v 143 26
v 144 29
v 145 37
v 146 26
v 147 2
v 148 51
v 149 13
v 150 45
v 151 11
v 152 32
v 153 30
v 154 4
v 155 4
v 156 11
v 157 21
v 158 28
v 159 3
v 160 32
v 161 21
v 162 6
v 163 20
v 164 33
v 165 36
v 166 22
v 167 25
v 168 30
v 169 19
v 170 20
v 171 9
v 172 39
v 173 51
v 174 8
v 175 25
v 176 18
v 177 44
v 178 13
v 179 9
v 180 33
v 181 1
v 182 19
v 183 23
v 184 0
v 185 1
v 186 12
v 187 17
v 188 8
v 189 14
v 190 1
v 191 8
v 192 8
v 193 29
v 194 32
v 195 45
v 196 50
v 197 25
v 198 23
v 199 1
v 200 27
v 201 5
v 202 16
v 203 41
v 204 16
v 205 17
v 206 38
v 207 9
v 208 5
v 209 23
v 210 10
v 211 44
v 212 34
v 213 4
v 214 26
v 215 48
v 216 47
v 217 24
v 218 38
v 219 27
v 220 8
v 221 15
v 222 2
v 223 2
v 224 27
v 225 12
v 226 38
v 227 33
v 228 39
v 229 6
v 230 32
v 231 49
v 232 2
v 233 33
v 234 15
v 235 12
v 236 16
v 237 12
v 238 32
v 239 40
v 240 32
v 241 17
v 242 34
v 243 43
v 244 20
v 245 2
v 246 11
v 247 18
v 248 3
v 249 19
v 250 6
v 251 30
v 252 47
v 253 19
v 254 30
v 255 19
v 256 13
v 257 18
v 258 24
v 259 33
v 260 34
v 261 10
v 262 6
v 263 13
v 264 28
v 265 0
v 266 3
v 267 37
v 268 29
v 269 42
v 270 50
v 271 17
v 272 12
v 273 0
v 274 15
v 275 14
v 276 9
v 277 9
v 278 52
v 279 7
v 280 35
v 281 25
v 282 6
v 283 46
v 284 41
v 285 5
v 286 34
v 287 12
v 288 13
v 289 37
v 290 21
v 291 31
v 292 27
v 293 25
v 294 49
v 295 25
v 296 51
v 297 21
v 298 20
v 299 39
v 300 42
